benchmarks_CP/INST_64x64/40/inst64x64_40_11.dzn
S=8;
start=[|
-1,	-1,	26,	20,	-1,	63,	-1,	-1,	-1,	-1,	-1,	29,	-1,	15,	-1,	-1,	-1,	37,	-1,	28,	19,	38,	2,	-1,	-1,	9,	27,	55,	-1,	-1,	-1,	31,	-1,	-1,	5,	25,	47,	-1,	-1,	-1,	4,	-1,	-1,	35,	14,	30,	-1,	45,	-1,	-1,	-1,	39,	-1,	59,	-1,	6,	64,	-1,	-1,	-1,	-1,	18,	-1,	-1|
-1,	-1,	-1,	-1,	-1,	44,	22,	-1,	7,	20,	38,	-1,	-1,	1,	-1,	-1,	-1,	-1,	-1,	-1,	-1,	18,	-1,	-1,	-1,	49,	-1,	4,	12,	-1,	43,	-1,	-1,	-1,	37,	9,	-1,	6,	-1,	59,	-1,	5,	29,	2,	28,	-1,	-1,	-1,	27,	-1,	63,	-1,	-1,	10,	-1,	-1,	-1,	-1,	-1,	-1,	-1,	-1,	-1,	3|
52,	50,	-1,	35,	-1,	-1,	6,	28,	-1,	-1,	48,	-1,	45,	17,	-1,	-1,	-1,	-1,	-1,	-1,	33,	10,	55,	7,	-1,	30,	11,	51,	-1,	36,	2,	-1,	49,	-1,	39,	-1,	-1,	-1,	-1,	-1,	12,	-1,	3,	-1,	58,	-1,	-1,	-1,	-1,	-1,	-1,	-1,	-1,	-1,	-1,	-1,	20,	1,	5,	-1,	37,	42,	-1,	-1|
-1,	58,	33,	-1,	-1,	45,	-1,	-1,	-1,	60,	-1,	-1,	2,	28,	-1,	4,	-1,	-1,	-1,	-1,	15,	9,	-1,	-1,	-1,	-1,	8,	-1,	24,	5,	-1,	23,	-1,	56,	-1,	-1,	-1,	29,	40,	61,	-1,	-1,	47,	39,	-1,	-1,	-1,	-1,	-1,	-1,	-1,	34,	-1,	42,	-1,	-1,	-1,	7,	-1,	32,	-1,	48,	25,	-1|
-1,	-1,	-1,	-1,	-1,	-1,	-1,	-1,	59,	-1,	-1,	-1,	-1,	56,	-1,	-1,	-1,	61,	39,	-1,	45,	-1,	14,	49,	37,	-1,	-1,	34,	-1,	48,	15,	50,	-1,	-1,	-1,	2,	-1,	-1,	-1,	-1,	-1,	11,	52,	51,	62,	43,	-1,	-1,	-1,	16,	-1,	58,	-1,	-1,	36,	28,	26,	-1,	-1,	-1,	35,	46,	-1,	-1|
-1,	4,	-1,	-1,	39,	25,	18,	-1,	49,	-1,	42,	-1,	-1,	-1,	64,	-1,	-1,	30,	56,	-1,	34,	63,	46,	-1,	33,	-1,	-1,	22,	38,	-1,	16,	-1,	-1,	43,	-1,	-1,	3,	-1,	28,	-1,	50,	32,	60,	-1,	-1,	-1,	-1,	-1,	21,	51,	-1,	-1,	-1,	-1,	-1,	14,	52,	-1,	11,	2,	-1,	53,	-1,	-1|
60,	-1,	-1,	-1,	62,	41,	-1,	-1,	-1,	-1,	25,	3,	-1,	-1,	14,	-1,	1,	-1,	-1,	17,	-1,	-1,	-1,	29,	-1,	28,	53,	39,	-1,	-1,	-1,	44,	-1,	26,	-1,	-1,	-1,	-1,	-1,	-1,	-1,	-1,	-1,	48,	37,	-1,	-1,	-1,	-1,	9,	50,	46,	31,	-1,	-1,	-1,	-1,	59,	-1,	-1,	-1,	-1,	-1,	-1|
3,	-1,	53,	-1,	-1,	-1,	-1,	-1,	39,	-1,	-1,	23,	18,	-1,	21,	-1,	11,	35,	-1,	31,	-1,	-1,	43,	62,	-1,	41,	42,	46,	10,	-1,	-1,	-1,	-1,	-1,	52,	-1,	-1,	20,	15,	-1,	-1,	13,	27,	8,	-1,	9,	63,	57,	-1,	-1,	47,	-1,	-1,	49,	-1,	-1,	-1,	33,	45,	28,	44,	-1,	14,	-1|
45,	-1,	50,	-1,	57,	58,	5,	-1,	-1,	-1,	-1,	10,	-1,	63,	20,	-1,	-1,	-1,	-1,	-1,	43,	15,	-1,	-1,	-1,	-1,	-1,	25,	1,	-1,	-1,	56,	59,	48,	44,	24,	53,	-1,	62,	6,	30,	42,	-1,	64,	-1,	-1,	-1,	-1,	23,	-1,	54,	19,	-1,	-1,	-1,	17,	34,	-1,	52,	-1,	-1,	40,	-1,	22|
21,	-1,	-1,	6,	-1,	47,	-1,	-1,	9,	12,	-1,	26,	-1,	-1,	2,	15,	-1,	-1,	22,	10,	46,	-1,	-1,	-1,	34,	8,	-1,	64,	52,	3,	-1,	38,	58,	29,	45,	41,	-1,	-1,	-1,	-1,	18,	-1,	-1,	-1,	-1,	-1,	-1,	51,	43,	-1,	-1,	20,	-1,	-1,	-1,	-1,	-1,	-1,	-1,	-1,	-1,	7,	28,	25|
44,	-1,	-1,	14,	36,	39,	-1,	-1,	-1,	18,	29,	34,	51,	-1,	-1,	24,	-1,	-1,	-1,	-1,	41,	-1,	-1,	56,	-1,	16,	-1,	27,	55,	-1,	-1,	58,	5,	-1,	40,	13,	50,	2,	22,	-1,	-1,	-1,	-1,	46,	57,	-1,	9,	26,	-1,	25,	53,	-1,	-1,	-1,	-1,	45,	-1,	-1,	20,	-1,	-1,	-1,	-1,	12|
28,	-1,	-1,	-1,	4,	7,	-1,	-1,	14,	48,	5,	56,	-1,	-1,	-1,	45,	-1,	-1,	20,	-1,	-1,	50,	-1,	-1,	15,	-1,	62,	53,	-1,	-1,	21,	-1,	43,	23,	-1,	-1,	-1,	-1,	-1,	-1,	-1,	-1,	34,	-1,	-1,	-1,	-1,	-1,	58,	27,	38,	-1,	-1,	-1,	-1,	13,	46,	35,	-1,	29,	-1,	44,	-1,	17|
-1,	-1,	55,	-1,	-1,	48,	54,	22,	-1,	38,	-1,	53,	-1,	-1,	58,	-1,	-1,	-1,	-1,	-1,	-1,	51,	26,	1,	-1,	59,	-1,	-1,	60,	13,	-1,	-1,	-1,	14,	16,	4,	-1,	42,	33,	15,	29,	-1,	-1,	-1,	-1,	-1,	-1,	-1,	-1,	-1,	10,	-1,	-1,	35,	39,	-1,	21,	18,	64,	-1,	41,	24,	-1,	-1|
38,	20,	-1,	-1,	13,	-1,	-1,	-1,	-1,	25,	-1,	-1,	27,	-1,	30,	-1,	-1,	-1,	44,	-1,	47,	61,	6,	5,	-1,	39,	2,	-1,	35,	-1,	-1,	40,	36,	-1,	-1,	37,	-1,	52,	-1,	-1,	60,	-1,	-1,	-1,	-1,	-1,	-1,	-1,	46,	-1,	29,	-1,	-1,	-1,	-1,	-1,	57,	-1,	4,	15,	-1,	-1,	58,	62|
61,	-1,	-1,	49,	17,	34,	56,	16,	-1,	-1,	-1,	55,	60,	-1,	-1,	59,	-1,	36,	-1,	-1,	-1,	-1,	-1,	13,	-1,	32,	10,	5,	-1,	-1,	-1,	9,	25,	35,	-1,	18,	-1,	-1,	-1,	-1,	41,	58,	-1,	-1,	39,	15,	-1,	-1,	-1,	-1,	24,	-1,	-1,	-1,	52,	3,	-1,	-1,	-1,	-1,	63,	8,	-1,	19|
41,	-1,	35,	-1,	-1,	-1,	-1,	-1,	-1,	61,	-1,	-1,	-1,	-1,	-1,	-1,	-1,	-1,	16,	-1,	-1,	-1,	-1,	59,	-1,	-1,	-1,	30,	-1,	-1,	-1,	24,	-1,	-1,	28,	-1,	-1,	64,	-1,	38,	-1,	25,	22,	-1,	53,	-1,	-1,	52,	-1,	-1,	-1,	-1,	15,	62,	55,	8,	48,	13,	37,	23,	-1,	-1,	-1,	42|
-1,	-1,	56,	30,	-1,	3,	-1,	37,	-1,	-1,	-1,	20,	16,	62,	-1,	-1,	43,	-1,	59,	-1,	-1,	-1,	33,	-1,	5,	31,	-1,	38,	64,	49,	-1,	41,	61,	15,	-1,	23,	-1,	-1,	24,	60,	-1,	-1,	-1,	-1,	-1,	-1,	29,	25,	54,	-1,	-1,	52,	-1,	51,	22,	-1,	-1,	-1,	12,	-1,	-1,	-1,	35,	50|
-1,	-1,	25,	-1,	61,	19,	31,	-1,	-1,	-1,	-1,	64,	4,	23,	-1,	-1,	37,	12,	1,	29,	-1,	17,	-1,	9,	-1,	-1,	-1,	48,	-1,	-1,	-1,	11,	28,	-1,	-1,	56,	-1,	-1,	51,	-1,	-1,	21,	55,	-1,	-1,	-1,	-1,	-1,	-1,	-1,	-1,	-1,	-1,	-1,	58,	-1,	-1,	-1,	-1,	57,	-1,	-1,	-1,	15|
-1,	10,	11,	-1,	32,	-1,	14,	-1,	1,	34,	-1,	-1,	-1,	47,	24,	-1,	-1,	-1,	28,	19,	-1,	-1,	-1,	-1,	-1,	-1,	-1,	-1,	27,	-1,	4,	-1,	26,	-1,	-1,	-1,	44,	-1,	-1,	46,	20,	54,	61,	-1,	-1,	6,	-1,	18,	-1,	-1,	-1,	-1,	30,	38,	-1,	-1,	-1,	-1,	-1,	-1,	-1,	-1,	56,	53|
-1,	-1,	-1,	-1,	33,	-1,	-1,	-1,	-1,	-1,	56,	48,	38,	-1,	11,	21,	-1,	-1,	-1,	-1,	-1,	31,	-1,	-1,	-1,	-1,	23,	-1,	-1,	-1,	-1,	57,	64,	55,	6,	-1,	18,	-1,	-1,	3,	-1,	60,	2,	-1,	-1,	28,	12,	-1,	-1,	29,	-1,	4,	20,	53,	45,	-1,	-1,	25,	-1,	-1,	5,	-1,	-1,	-1|
-1,	-1,	-1,	5,	-1,	-1,	-1,	-1,	25,	-1,	61,	-1,	-1,	-1,	-1,	-1,	-1,	32,	-1,	60,	-1,	-1,	35,	-1,	53,	-1,	58,	-1,	-1,	55,	-1,	17,	-1,	-1,	-1,	-1,	-1,	38,	1,	-1,	-1,	47,	-1,	10,	51,	-1,	-1,	33,	28,	-1,	56,	-1,	-1,	3,	-1,	37,	-1,	-1,	18,	34,	-1,	-1,	-1,	-1|
-1,	43,	6,	58,	-1,	12,	-1,	-1,	26,	-1,	3,	-1,	8,	-1,	-1,	-1,	-1,	-1,	-1,	-1,	2,	-1,	-1,	-1,	59,	-1,	47,	42,	-1,	10,	19,	-1,	48,	-1,	27,	33,	-1,	-1,	-1,	-1,	40,	50,	5,	22,	-1,	57,	-1,	-1,	-1,	-1,	-1,	-1,	62,	-1,	-1,	-1,	-1,	-1,	-1,	-1,	-1,	11,	-1,	-1|
-1,	-1,	-1,	-1,	50,	-1,	-1,	-1,	33,	2,	57,	-1,	-1,	-1,	-1,	-1,	-1,	-1,	-1,	-1,	-1,	16,	-1,	-1,	-1,	36,	-1,	-1,	-1,	9,	-1,	-1,	-1,	-1,	-1,	45,	-1,	32,	53,	54,	59,	-1,	-1,	-1,	-1,	62,	35,	46,	-1,	47,	5,	23,	-1,	11,	43,	-1,	-1,	-1,	-1,	10,	-1,	-1,	-1,	-1|
-1,	28,	-1,	-1,	-1,	-1,	47,	-1,	-1,	-1,	50,	52,	-1,	-1,	18,	-1,	-1,	-1,	-1,	38,	-1,	-1,	-1,	36,	60,	12,	-1,	-1,	-1,	-1,	3,	-1,	-1,	31,	-1,	-1,	5,	-1,	-1,	-1,	-1,	-1,	-1,	-1,	63,	-1,	27,	14,	33,	-1,	6,	10,	-1,	-1,	57,	-1,	2,	-1,	-1,	-1,	-1,	59,	-1,	-1|
53,	-1,	18,	-1,	15,	-1,	-1,	-1,	-1,	59,	-1,	-1,	-1,	-1,	23,	-1,	-1,	-1,	12,	-1,	-1,	60,	47,	-1,	-1,	27,	57,	-1,	-1,	40,	49,	64,	-1,	-1,	-1,	61,	-1,	21,	45,	-1,	-1,	-1,	8,	37,	52,	-1,	-1,	-1,	42,	50,	16,	-1,	-1,	-1,	-1,	-1,	36,	-1,	6,	38,	-1,	13,	-1,	-1|
-1,	56,	-1,	31,	-1,	28,	-1,	54,	-1,	52,	-1,	-1,	63,	-1,	13,	-1,	61,	-1,	-1,	-1,	-1,	-1,	27,	34,	-1,	-1,	-1,	-1,	-1,	-1,	59,	-1,	20,	-1,	-1,	22,	-1,	12,	-1,	23,	36,	19,	-1,	49,	21,	-1,	18,	-1,	57,	40,	64,	-1,	5,	-1,	-1,	35,	-1,	24,	39,	11,	-1,	10,	-1,	44|
-1,	-1,	-1,	44,	-1,	5,	2,	47,	8,	-1,	34,	11,	-1,	26,	16,	-1,	-1,	-1,	-1,	-1,	35,	-1,	-1,	-1,	10,	55,	-1,	-1,	-1,	-1,	-1,	6,	-1,	-1,	-1,	43,	58,	28,	32,	31,	-1,	-1,	-1,	-1,	50,	54,	-1,	39,	9,	-1,	-1,	-1,	41,	20,	-1,	60,	19,	21,	-1,	-1,	7,	-1,	-1,	64|
-1,	-1,	8,	63,	38,	-1,	4,	-1,	57,	-1,	-1,	-1,	46,	-1,	-1,	18,	-1,	64,	-1,	-1,	-1,	-1,	39,	-1,	58,	3,	30,	-1,	34,	-1,	-1,	-1,	-1,	-1,	-1,	-1,	9,	-1,	-1,	26,	-1,	-1,	6,	-1,	-1,	-1,	43,	-1,	19,	-1,	-1,	-1,	10,	-1,	15,	-1,	-1,	41,	50,	-1,	49,	35,	27,	-1|
-1,	-1,	10,	19,	-1,	-1,	-1,	-1,	-1,	-1,	9,	30,	50,	-1,	15,	44,	-1,	-1,	51,	42,	-1,	24,	-1,	-1,	-1,	-1,	-1,	21,	-1,	7,	-1,	-1,	-1,	-1,	-1,	-1,	-1,	53,	-1,	-1,	22,	-1,	-1,	-1,	2,	-1,	-1,	-1,	39,	-1,	49,	-1,	17,	45,	-1,	-1,	-1,	-1,	16,	-1,	-1,	-1,	18,	52|
7,	42,	-1,	-1,	-1,	-1,	-1,	-1,	5,	-1,	-1,	-1,	61,	-1,	22,	-1,	-1,	54,	-1,	-1,	23,	-1,	-1,	-1,	28,	19,	-1,	-1,	-1,	20,	39,	-1,	-1,	13,	55,	-1,	59,	40,	-1,	-1,	32,	-1,	1,	-1,	-1,	24,	-1,	-1,	51,	-1,	-1,	47,	27,	8,	-1,	-1,	-1,	-1,	-1,	-1,	-1,	-1,	15,	46|
-1,	-1,	-1,	-1,	-1,	-1,	-1,	13,	-1,	-1,	-1,	32,	29,	51,	62,	-1,	-1,	19,	-1,	-1,	-1,	-1,	-1,	52,	54,	44,	-1,	26,	-1,	-1,	48,	61,	-1,	-1,	-1,	-1,	-1,	-1,	-1,	-1,	-1,	14,	35,	57,	64,	41,	-1,	40,	-1,	-1,	28,	-1,	-1,	-1,	-1,	56,	-1,	-1,	-1,	42,	-1,	-1,	-1,	-1|
-1,	39,	-1,	-1,	-1,	-1,	12,	21,	54,	35,	-1,	-1,	-1,	45,	19,	-1,	58,	28,	32,	-1,	-1,	-1,	49,	48,	-1,	17,	16,	-1,	-1,	-1,	-1,	-1,	-1,	-1,	24,	-1,	57,	10,	-1,	30,	-1,	-1,	-1,	-1,	9,	27,	-1,	-1,	-1,	-1,	36,	2,	-1,	6,	-1,	-1,	63,	-1,	-1,	-1,	-1,	56,	40,	-1|
62,	-1,	-1,	26,	-1,	37,	23,	-1,	-1,	-1,	49,	63,	-1,	5,	-1,	-1,	-1,	21,	-1,	56,	-1,	43,	-1,	30,	-1,	-1,	54,	-1,	-1,	-1,	32,	-1,	-1,	-1,	-1,	36,	-1,	7,	9,	-1,	-1,	-1,	-1,	-1,	61,	-1,	-1,	-1,	8,	2,	-1,	-1,	1,	-1,	-1,	-1,	16,	27,	57,	20,	12,	-1,	-1,	34|
-1,	-1,	-1,	-1,	43,	8,	-1,	12,	6,	-1,	-1,	-1,	-1,	-1,	-1,	-1,	-1,	-1,	33,	-1,	-1,	-1,	10,	-1,	-1,	-1,	-1,	18,	20,	-1,	-1,	37,	41,	47,	-1,	-1,	-1,	57,	64,	-1,	-1,	-1,	40,	28,	17,	55,	-1,	9,	62,	-1,	32,	-1,	-1,	25,	-1,	-1,	-1,	42,	-1,	-1,	-1,	-1,	4,	39|
10,	-1,	-1,	-1,	-1,	59,	-1,	-1,	-1,	53,	-1,	-1,	-1,	57,	26,	-1,	-1,	-1,	38,	32,	-1,	-1,	19,	64,	11,	52,	25,	-1,	-1,	-1,	-1,	16,	31,	-1,	-1,	-1,	-1,	30,	3,	2,	-1,	43,	42,	63,	-1,	-1,	-1,	-1,	-1,	4,	-1,	49,	6,	15,	-1,	29,	61,	55,	-1,	-1,	-1,	-1,	-1,	-1|
1,	49,	-1,	-1,	-1,	-1,	-1,	64,	44,	-1,	-1,	-1,	-1,	-1,	10,	-1,	59,	-1,	-1,	-1,	-1,	-1,	-1,	-1,	-1,	-1,	-1,	47,	-1,	-1,	-1,	-1,	23,	-1,	-1,	12,	-1,	-1,	-1,	-1,	62,	-1,	21,	36,	-1,	-1,	-1,	-1,	40,	-1,	58,	-1,	-1,	-1,	50,	-1,	6,	43,	-1,	52,	-1,	63,	-1,	8|
2,	-1,	-1,	36,	16,	-1,	-1,	-1,	-1,	-1,	-1,	38,	43,	12,	-1,	-1,	-1,	-1,	-1,	-1,	-1,	-1,	-1,	-1,	-1,	45,	49,	1,	-1,	-1,	-1,	-1,	54,	20,	4,	-1,	-1,	61,	26,	-1,	-1,	-1,	-1,	18,	34,	-1,	50,	-1,	13,	53,	-1,	17,	-1,	44,	-1,	-1,	-1,	15,	-1,	-1,	-1,	-1,	-1,	-1|
-1,	55,	-1,	33,	54,	29,	-1,	-1,	-1,	62,	-1,	-1,	-1,	-1,	-1,	-1,	-1,	-1,	53,	44,	-1,	-1,	-1,	-1,	-1,	57,	-1,	15,	41,	-1,	-1,	4,	-1,	59,	46,	8,	10,	-1,	-1,	42,	19,	-1,	-1,	-1,	-1,	49,	38,	30,	-1,	-1,	39,	-1,	-1,	-1,	3,	-1,	-1,	28,	-1,	-1,	23,	50,	-1,	-1|
-1,	-1,	-1,	45,	-1,	53,	-1,	51,	61,	-1,	-1,	-1,	-1,	34,	-1,	2,	-1,	-1,	63,	-1,	-1,	-1,	-1,	-1,	-1,	56,	5,	-1,	-1,	-1,	-1,	42,	14,	44,	-1,	49,	-1,	-1,	-1,	25,	-1,	24,	-1,	-1,	-1,	-1,	-1,	48,	12,	57,	22,	-1,	-1,	-1,	-1,	-1,	-1,	-1,	-1,	-1,	18,	-1,	-1,	-1|
22,	63,	-1,	-1,	-1,	-1,	-1,	-1,	-1,	-1,	-1,	-1,	-1,	21,	8,	55,	50,	29,	-1,	-1,	-1,	45,	25,	-1,	-1,	-1,	-1,	43,	59,	30,	46,	33,	-1,	58,	32,	34,	-1,	-1,	-1,	-1,	3,	2,	57,	-1,	-1,	-1,	-1,	-1,	-1,	61,	42,	28,	-1,	-1,	-1,	-1,	-1,	-1,	19,	-1,	-1,	-1,	60,	11|
-1,	-1,	-1,	-1,	-1,	2,	-1,	-1,	-1,	41,	-1,	-1,	-1,	-1,	-1,	34,	23,	58,	52,	1,	-1,	35,	29,	-1,	-1,	-1,	55,	-1,	5,	-1,	-1,	-1,	3,	-1,	49,	-1,	60,	-1,	-1,	-1,	21,	46,	-1,	9,	-1,	39,	-1,	-1,	-1,	28,	8,	44,	13,	-1,	16,	-1,	-1,	61,	48,	-1,	-1,	-1,	-1,	-1|
-1,	16,	-1,	-1,	-1,	-1,	-1,	-1,	-1,	-1,	45,	-1,	-1,	-1,	48,	-1,	-1,	-1,	-1,	40,	-1,	25,	-1,	-1,	-1,	58,	22,	59,	53,	-1,	-1,	-1,	18,	-1,	-1,	-1,	-1,	8,	43,	-1,	-1,	7,	-1,	-1,	-1,	-1,	-1,	28,	-1,	-1,	-1,	-1,	55,	-1,	35,	-1,	30,	-1,	-1,	-1,	-1,	-1,	-1,	-1|
-1,	-1,	-1,	64,	-1,	-1,	-1,	-1,	2,	-1,	8,	-1,	-1,	18,	49,	-1,	-1,	6,	43,	-1,	38,	7,	62,	-1,	-1,	-1,	39,	-1,	-1,	50,	-1,	-1,	12,	-1,	9,	44,	32,	63,	36,	22,	56,	-1,	30,	54,	-1,	26,	-1,	1,	4,	-1,	-1,	5,	53,	57,	17,	48,	31,	10,	-1,	58,	51,	29,	-1,	40|
-1,	-1,	-1,	10,	-1,	-1,	28,	38,	-1,	-1,	-1,	-1,	53,	9,	-1,	-1,	-1,	39,	-1,	54,	-1,	-1,	-1,	-1,	18,	11,	-1,	-1,	23,	-1,	26,	52,	7,	-1,	14,	-1,	-1,	-1,	35,	57,	-1,	-1,	-1,	-1,	-1,	-1,	-1,	-1,	-1,	-1,	34,	27,	43,	12,	-1,	-1,	-1,	-1,	8,	-1,	-1,	-1,	46,	-1|
26,	-1,	-1,	-1,	-1,	21,	-1,	48,	-1,	-1,	-1,	5,	-1,	4,	-1,	25,	-1,	-1,	57,	11,	-1,	32,	-1,	-1,	-1,	-1,	60,	-1,	-1,	43,	40,	-1,	27,	45,	-1,	47,	-1,	-1,	-1,	-1,	-1,	-1,	14,	-1,	-1,	22,	15,	31,	-1,	-1,	-1,	59,	50,	56,	10,	49,	-1,	62,	-1,	-1,	-1,	-1,	1,	16|
5,	9,	-1,	47,	49,	54,	33,	-1,	21,	-1,	44,	-1,	30,	10,	39,	-1,	56,	-1,	-1,	-1,	-1,	53,	-1,	-1,	-1,	63,	-1,	29,	62,	-1,	-1,	14,	15,	28,	-1,	-1,	-1,	-1,	48,	-1,	-1,	-1,	-1,	-1,	18,	-1,	-1,	-1,	-1,	-1,	-1,	38,	45,	-1,	7,	-1,	-1,	-1,	-1,	64,	-1,	-1,	2,	-1|
-1,	-1,	-1,	-1,	-1,	18,	15,	-1,	40,	-1,	27,	59,	-1,	19,	-1,	-1,	-1,	22,	45,	-1,	-1,	-1,	9,	8,	-1,	48,	35,	36,	57,	-1,	-1,	-1,	50,	-1,	26,	-1,	-1,	56,	23,	37,	17,	-1,	62,	-1,	-1,	-1,	10,	3,	-1,	-1,	-1,	-1,	-1,	-1,	20,	21,	-1,	-1,	-1,	53,	-1,	28,	-1,	-1|
29,	-1,	-1,	-1,	1,	-1,	-1,	-1,	-1,	56,	52,	-1,	-1,	46,	-1,	-1,	-1,	-1,	49,	61,	-1,	-1,	41,	-1,	13,	-1,	28,	31,	3,	-1,	64,	-1,	-1,	-1,	54,	-1,	-1,	-1,	-1,	20,	-1,	40,	-1,	-1,	-1,	23,	-1,	63,	47,	60,	-1,	9,	-1,	39,	-1,	-1,	18,	-1,	7,	-1,	42,	26,	-1,	-1|
24,	22,	-1,	57,	-1,	42,	-1,	-1,	63,	-1,	-1,	28,	-1,	-1,	55,	-1,	-1,	-1,	-1,	4,	-1,	-1,	-1,	-1,	-1,	10,	-1,	-1,	-1,	39,	-1,	-1,	-1,	-1,	47,	64,	-1,	-1,	-1,	16,	-1,	-1,	-1,	7,	-1,	25,	51,	-1,	29,	-1,	-1,	-1,	-1,	-1,	54,	-1,	-1,	-1,	32,	-1,	-1,	-1,	-1,	30|
6,	-1,	-1,	-1,	-1,	-1,	39,	34,	4,	44,	-1,	-1,	-1,	30,	-1,	-1,	-1,	-1,	55,	-1,	-1,	-1,	16,	22,	-1,	21,	63,	-1,	-1,	-1,	53,	29,	45,	-1,	-1,	59,	26,	19,	42,	-1,	-1,	35,	-1,	5,	60,	18,	47,	-1,	2,	-1,	40,	-1,	-1,	17,	23,	-1,	-1,	-1,	-1,	49,	-1,	-1,	-1,	7|
-1,	-1,	14,	37,	-1,	-1,	52,	5,	53,	-1,	-1,	-1,	-1,	35,	-1,	57,	-1,	-1,	-1,	41,	20,	30,	-1,	-1,	-1,	-1,	-1,	7,	28,	23,	47,	-1,	2,	11,	-1,	-1,	-1,	-1,	-1,	13,	-1,	22,	-1,	27,	45,	29,	46,	-1,	-1,	10,	-1,	-1,	-1,	-1,	60,	-1,	33,	-1,	-1,	-1,	19,	-1,	34,	56|
-1,	-1,	-1,	-1,	-1,	33,	64,	41,	15,	50,	-1,	-1,	-1,	-1,	-1,	39,	-1,	-1,	-1,	49,	-1,	36,	-1,	-1,	-1,	-1,	52,	-1,	-1,	-1,	5,	32,	29,	-1,	-1,	-1,	-1,	-1,	-1,	24,	2,	57,	-1,	-1,	-1,	59,	-1,	-1,	-1,	-1,	45,	18,	-1,	-1,	-1,	44,	12,	-1,	27,	3,	28,	47,	42,	-1|
-1,	62,	44,	-1,	58,	-1,	35,	-1,	-1,	-1,	-1,	-1,	59,	48,	-1,	-1,	60,	-1,	23,	-1,	37,	-1,	54,	-1,	45,	-1,	-1,	-1,	-1,	-1,	-1,	-1,	-1,	-1,	57,	5,	-1,	34,	7,	-1,	-1,	52,	-1,	-1,	41,	-1,	-1,	6,	38,	-1,	13,	-1,	-1,	-1,	42,	-1,	-1,	-1,	15,	-1,	64,	21,	26,	-1|
49,	-1,	51,	40,	-1,	30,	-1,	45,	10,	-1,	-1,	-1,	6,	42,	-1,	-1,	31,	-1,	-1,	-1,	-1,	11,	-1,	-1,	-1,	-1,	-1,	-1,	-1,	-1,	-1,	-1,	-1,	-1,	15,	27,	21,	-1,	-1,	41,	-1,	-1,	-1,	-1,	-1,	-1,	34,	-1,	-1,	-1,	61,	-1,	47,	52,	56,	-1,	-1,	-1,	55,	-1,	1,	-1,	-1,	60|
-1,	-1,	-1,	-1,	12,	-1,	1,	-1,	23,	13,	60,	45,	5,	8,	34,	56,	-1,	-1,	62,	6,	-1,	42,	7,	-1,	-1,	-1,	38,	-1,	-1,	-1,	-1,	-1,	-1,	-1,	-1,	-1,	-1,	-1,	-1,	-1,	-1,	-1,	-1,	-1,	19,	-1,	3,	-1,	-1,	46,	27,	-1,	-1,	30,	26,	-1,	-1,	-1,	-1,	-1,	50,	58,	24,	-1|
-1,	38,	-1,	4,	-1,	-1,	55,	-1,	-1,	-1,	-1,	-1,	-1,	-1,	27,	52,	25,	13,	-1,	-1,	-1,	-1,	45,	-1,	-1,	34,	-1,	6,	17,	-1,	-1,	-1,	33,	49,	3,	39,	-1,	60,	56,	-1,	-1,	12,	-1,	40,	-1,	-1,	42,	-1,	-1,	-1,	-1,	-1,	-1,	-1,	-1,	-1,	-1,	-1,	-1,	-1,	-1,	-1,	48,	-1|
-1,	30,	42,	-1,	-1,	55,	26,	33,	-1,	-1,	-1,	7,	-1,	-1,	9,	37,	-1,	-1,	-1,	12,	-1,	-1,	-1,	15,	-1,	-1,	-1,	-1,	-1,	-1,	-1,	-1,	-1,	60,	10,	-1,	-1,	-1,	-1,	-1,	47,	53,	-1,	-1,	-1,	63,	-1,	5,	35,	-1,	17,	64,	-1,	-1,	2,	-1,	-1,	-1,	29,	46,	40,	-1,	-1,	-1|
-1,	-1,	32,	28,	18,	-1,	25,	20,	-1,	-1,	13,	-1,	3,	52,	4,	-1,	8,	10,	-1,	-1,	-1,	-1,	38,	16,	-1,	5,	-1,	-1,	-1,	-1,	-1,	-1,	-1,	30,	7,	26,	-1,	-1,	-1,	-1,	-1,	59,	19,	50,	6,	12,	33,	-1,	-1,	-1,	-1,	56,	57,	-1,	-1,	34,	44,	-1,	-1,	-1,	2,	64,	-1,	23|
-1,	-1,	-1,	-1,	40,	46,	44,	29,	-1,	19,	15,	6,	-1,	-1,	56,	26,	28,	-1,	-1,	62,	-1,	-1,	52,	-1,	39,	-1,	36,	-1,	-1,	-1,	18,	59,	57,	3,	-1,	-1,	23,	-1,	14,	32,	-1,	-1,	9,	-1,	-1,	42,	64,	-1,	16,	45,	-1,	13,	33,	27,	-1,	-1,	11,	-1,	-1,	-1,	22,	30,	-1,	-1|
-1,	-1,	-1,	-1,	47,	52,	45,	-1,	43,	-1,	-1,	41,	35,	32,	54,	-1,	-1,	-1,	-1,	-1,	-1,	55,	-1,	-1,	-1,	64,	-1,	-1,	-1,	-1,	24,	-1,	62,	-1,	-1,	-1,	4,	-1,	34,	5,	13,	-1,	20,	29,	-1,	-1,	28,	-1,	-1,	-1,	-1,	8,	-1,	60,	9,	61,	7,	16,	3,	17,	-1,	27,	-1,	-1|
-1,	-1,	-1,	-1,	-1,	-1,	-1,	-1,	-1,	-1,	-1,	-1,	25,	-1,	-1,	61,	-1,	-1,	-1,	50,	-1,	22,	-1,	19,	-1,	-1,	14,	20,	-1,	-1,	-1,	-1,	-1,	-1,	2,	1,	6,	24,	46,	-1,	-1,	27,	16,	-1,	-1,	45,	-1,	44,	49,	-1,	-1,	31,	40,	-1,	63,	-1,	-1,	26,	42,	-1,	-1,	-1,	39,	-1|
64,	2,	-1,	-1,	-1,	4,	-1,	-1,	-1,	57,	-1,	-1,	-1,	11,	5,	-1,	-1,	59,	-1,	-1,	21,	-1,	-1,	44,	-1,	-1,	19,	12,	-1,	-1,	-1,	47,	8,	53,	-1,	31,	-1,	-1,	-1,	35,	-1,	-1,	-1,	56,	-1,	60,	26,	61,	-1,	39,	3,	-1,	-1,	18,	-1,	-1,	55,	52,	-1,	-1,	45,	-1,	-1,	-1|
-1,	-1,	5,	-1,	24,	22,	-1,	-1,	20,	49,	58,	-1,	-1,	-1,	-1,	-1,	45,	-1,	-1,	-1,	11,	37,	64,	42,	56,	-1,	15,	57,	-1,	35,	10,	62,	47,	-1,	21,	55,	52,	-1,	29,	-1,	-1,	-1,	36,	-1,	4,	40,	-1,	-1,	-1,	-1,	30,	-1,	-1,	14,	-1,	-1,	-1,	34,	9,	-1,	13,	-1,	8,	63|
-1,	41,	23,	-1,	-1,	-1,	-1,	-1,	30,	-1,	59,	42,	55,	14,	44,	8,	-1,	34,	31,	-1,	-1,	-1,	1,	-1,	16,	26,	-1,	3,	9,	32,	-1,	21,	-1,	-1,	-1,	15,	-1,	58,	17,	64,	-1,	49,	18,	-1,	46,	11,	-1,	2,	10,	37,	-1,	-1,	-1,	-1,	5,	-1,	-1,	36,	53,	60,	57,	-1,	-1,	-1|];
