benchmarks_LEQ/INST_64x64/40/inst64x64_40_11.txt
8
1
-1	-1	-1	20	11	-1	-1	-1	-1	-1	-1	29	52	15	-1	10	-1	37	-1	28	19	38	-1	23	-1	-1	27	-1	-1	-1	58	-1	60	16	-1	25	47	-1	13	-1	4	-1	7	35	-1	-1	-1	-1	-1	33	-1	39	-1	59	-1	6	-1	40	-1	-1	34	18	-1	-1
17	-1	-1	56	-1	44	-1	14	-1	-1	-1	35	-1	-1	33	51	-1	-1	48	8	-1	-1	50	41	-1	49	61	4	-1	-1	-1	-1	-1	-1	-1	-1	-1	-1	21	-1	46	-1	-1	2	-1	-1	-1	-1	-1	52	-1	32	-1	10	40	-1	-1	-1	62	19	-1	-1	30	-1
-1	-1	-1	35	-1	32	6	-1	46	9	-1	-1	-1	17	57	-1	44	-1	60	53	-1	10	-1	-1	40	-1	-1	-1	-1	-1	-1	-1	-1	27	-1	14	-1	62	8	-1	12	-1	-1	41	-1	31	22	38	-1	64	25	15	18	23	-1	-1	20	1	-1	-1	37	42	29	4
-1	-1	33	-1	-1	-1	-1	1	22	60	11	-1	-1	28	-1	-1	27	20	-1	-1	-1	9	-1	-1	-1	-1	8	-1	-1	-1	62	-1	-1	56	-1	-1	-1	29	-1	61	64	-1	-1	-1	59	-1	-1	21	3	17	41	-1	38	42	-1	-1	-1	7	-1	32	-1	-1	25	49
-1	-1	-1	-1	-1	-1	29	55	-1	32	30	44	-1	-1	-1	-1	-1	-1	-1	5	-1	-1	-1	-1	-1	20	18	-1	-1	48	-1	-1	4	1	-1	-1	-1	-1	-1	53	-1	-1	-1	-1	62	43	17	-1	-1	16	-1	-1	-1	-1	36	28	-1	8	-1	-1	-1	-1	54	38
-1	-1	-1	23	-1	25	-1	57	49	47	-1	8	-1	-1	64	5	-1	30	-1	59	34	-1	-1	58	-1	-1	-1	-1	38	-1	16	-1	24	-1	-1	17	-1	45	-1	44	-1	32	-1	15	-1	-1	-1	54	21	51	-1	29	35	-1	61	-1	-1	-1	11	2	-1	-1	-1	-1
60	-1	49	-1	-1	41	-1	-1	-1	-1	-1	3	-1	-1	14	-1	-1	-1	21	-1	-1	-1	-1	29	64	-1	-1	39	-1	-1	13	-1	-1	-1	35	-1	54	51	-1	-1	-1	-1	10	48	37	-1	-1	20	-1	9	-1	-1	-1	2	8	30	-1	-1	-1	63	47	-1	57	36
-1	-1	-1	-1	30	16	-1	40	-1	-1	54	-1	-1	37	-1	58	-1	-1	-1	31	-1	-1	43	-1	-1	41	-1	46	10	59	-1	60	-1	-1	-1	-1	-1	-1	-1	-1	-1	13	27	8	1	-1	63	-1	-1	48	47	26	-1	49	-1	-1	-1	33	-1	-1	-1	51	-1	-1
-1	18	-1	-1	57	-1	5	-1	-1	8	-1	-1	-1	63	-1	-1	-1	2	-1	-1	-1	-1	28	38	-1	-1	-1	25	-1	51	12	56	-1	48	-1	24	-1	26	62	-1	-1	42	-1	64	27	21	-1	36	-1	-1	54	-1	60	33	4	17	34	-1	52	14	9	-1	-1	-1
21	-1	19	6	23	47	59	42	-1	-1	-1	26	-1	39	-1	15	63	53	-1	10	-1	-1	37	-1	-1	8	33	-1	52	-1	-1	-1	-1	29	-1	-1	1	54	-1	56	18	17	-1	62	-1	-1	-1	-1	-1	-1	-1	-1	61	-1	-1	-1	60	30	36	-1	-1	7	-1	-1
44	-1	-1	-1	-1	39	32	15	-1	-1	29	-1	-1	6	-1	-1	-1	-1	-1	-1	-1	19	8	-1	-1	-1	31	27	55	-1	-1	-1	-1	-1	40	13	50	2	-1	-1	-1	-1	-1	-1	57	7	-1	-1	11	-1	-1	-1	-1	1	28	-1	-1	-1	20	-1	-1	-1	-1	12
-1	-1	9	-1	4	7	30	-1	-1	-1	-1	-1	22	36	41	-1	-1	-1	20	-1	64	-1	42	-1	15	-1	62	-1	49	18	21	-1	-1	23	19	32	-1	-1	-1	39	-1	-1	-1	-1	10	-1	11	-1	58	-1	-1	40	-1	-1	-1	13	46	35	-1	-1	-1	-1	16	-1
-1	-1	55	-1	-1	-1	-1	22	32	-1	-1	-1	-1	-1	-1	-1	49	-1	30	-1	57	51	26	-1	-1	59	-1	44	-1	13	-1	46	-1	-1	16	-1	-1	-1	33	-1	29	28	43	-1	5	3	-1	-1	34	-1	-1	36	9	35	39	-1	-1	18	-1	-1	-1	-1	50	-1
-1	-1	-1	-1	13	43	-1	-1	28	-1	33	-1	-1	-1	-1	31	-1	18	-1	-1	47	61	-1	5	14	39	-1	19	-1	26	-1	-1	-1	-1	17	37	7	-1	55	-1	-1	23	59	-1	56	-1	24	-1	-1	42	29	-1	-1	22	12	-1	-1	54	-1	15	11	-1	58	62
-1	-1	-1	-1	-1	-1	-1	-1	-1	23	43	-1	-1	44	-1	-1	62	36	-1	45	7	-1	21	13	-1	32	-1	5	-1	28	-1	9	25	-1	-1	18	-1	-1	-1	-1	-1	-1	-1	33	39	15	-1	-1	31	26	24	57	-1	-1	-1	3	-1	-1	2	-1	-1	-1	51	-1
41	1	35	-1	-1	-1	-1	-1	17	-1	-1	-1	-1	-1	-1	-1	9	-1	16	-1	-1	-1	32	-1	57	-1	43	30	-1	6	-1	-1	34	-1	28	20	-1	64	-1	-1	-1	-1	-1	-1	53	-1	2	52	63	-1	18	-1	-1	-1	-1	-1	-1	-1	-1	-1	39	-1	-1	-1
40	44	-1	-1	-1	-1	-1	-1	-1	-1	-1	-1	16	62	6	-1	-1	-1	-1	-1	10	-1	-1	57	5	31	21	-1	-1	-1	-1	-1	61	-1	11	-1	-1	-1	24	60	48	9	53	1	36	17	-1	-1	-1	8	-1	-1	-1	-1	-1	-1	27	19	12	-1	-1	-1	-1	-1
-1	-1	-1	-1	-1	19	31	-1	45	5	-1	-1	-1	-1	-1	36	-1	12	-1	29	-1	-1	53	-1	-1	35	40	48	-1	-1	6	11	-1	-1	-1	56	-1	-1	51	7	-1	21	55	-1	-1	-1	-1	-1	-1	49	-1	-1	-1	13	-1	27	-1	-1	24	-1	-1	-1	-1	-1
55	-1	-1	-1	-1	-1	-1	63	-1	-1	35	31	17	-1	-1	-1	-1	23	28	19	-1	-1	3	21	2	33	-1	52	27	-1	-1	-1	-1	41	-1	57	-1	-1	-1	-1	-1	54	61	-1	-1	6	8	-1	25	-1	-1	12	-1	-1	-1	-1	-1	-1	-1	62	-1	37	-1	53
-1	-1	-1	24	-1	-1	-1	-1	-1	-1	56	48	38	-1	11	21	-1	-1	-1	-1	49	31	-1	26	-1	22	23	-1	15	-1	-1	-1	64	55	-1	10	-1	-1	-1	3	-1	-1	-1	42	-1	-1	-1	-1	-1	29	-1	-1	20	53	-1	-1	-1	25	-1	44	-1	-1	-1	-1
-1	-1	-1	-1	-1	49	-1	-1	-1	-1	61	15	-1	-1	-1	54	-1	-1	27	-1	-1	-1	35	-1	53	-1	58	45	-1	55	-1	17	-1	-1	-1	-1	-1	-1	-1	62	-1	-1	23	10	-1	4	30	33	28	-1	-1	50	46	-1	-1	37	-1	48	-1	-1	-1	52	-1	13
-1	43	-1	-1	-1	-1	-1	-1	-1	-1	3	-1	8	-1	-1	-1	7	44	-1	-1	2	-1	56	54	-1	-1	-1	42	-1	10	-1	-1	48	25	-1	33	-1	4	-1	49	40	-1	-1	-1	32	57	-1	-1	-1	24	35	-1	62	31	34	-1	-1	64	-1	-1	-1	11	-1	1
-1	-1	-1	21	50	1	-1	-1	-1	-1	-1	27	-1	-1	-1	-1	-1	-1	42	-1	-1	16	-1	-1	30	36	51	-1	-1	-1	-1	-1	13	-1	8	45	-1	-1	-1	-1	59	3	-1	-1	-1	62	-1	46	-1	-1	-1	-1	-1	-1	43	-1	-1	17	28	-1	-1	-1	-1	-1
-1	28	29	-1	8	23	-1	-1	-1	46	50	-1	44	-1	-1	-1	-1	11	-1	-1	-1	-1	-1	-1	60	12	26	-1	-1	62	-1	-1	-1	31	-1	-1	-1	17	20	-1	-1	56	45	-1	-1	34	27	-1	33	-1	6	10	39	-1	57	41	2	-1	-1	-1	16	-1	7	51
-1	25	-1	-1	-1	-1	-1	58	-1	-1	-1	17	-1	7	-1	28	55	-1	-1	-1	4	-1	47	20	-1	-1	57	-1	11	40	49	-1	-1	-1	-1	61	35	-1	-1	19	-1	-1	8	37	52	-1	-1	-1	-1	50	16	-1	-1	-1	-1	-1	-1	-1	-1	38	-1	-1	-1	-1
-1	-1	-1	31	3	28	9	54	-1	52	-1	-1	-1	38	-1	53	-1	50	-1	-1	-1	-1	27	-1	-1	-1	37	33	2	-1	-1	-1	20	-1	-1	22	-1	12	4	23	-1	-1	-1	49	-1	-1	18	15	57	40	-1	25	5	-1	-1	-1	62	-1	-1	-1	17	10	-1	-1
48	51	-1	-1	-1	-1	-1	47	-1	4	-1	-1	49	26	-1	27	53	-1	-1	37	-1	-1	-1	-1	10	-1	-1	13	25	-1	-1	-1	-1	-1	-1	-1	-1	28	-1	31	45	62	-1	12	50	54	-1	39	-1	-1	-1	1	41	-1	-1	60	19	-1	-1	33	-1	-1	-1	-1
32	52	8	-1	-1	-1	4	-1	-1	-1	24	40	46	-1	37	18	-1	-1	-1	-1	-1	56	-1	-1	-1	3	-1	-1	-1	53	-1	5	-1	-1	51	-1	9	14	-1	-1	-1	31	6	-1	-1	47	-1	7	19	-1	55	-1	-1	-1	15	-1	-1	-1	-1	12	-1	-1	27	-1
-1	-1	10	-1	-1	27	-1	-1	12	-1	9	-1	-1	3	15	-1	-1	-1	-1	-1	-1	-1	31	-1	36	-1	41	21	-1	-1	-1	-1	-1	54	-1	6	56	-1	-1	-1	22	-1	-1	-1	-1	-1	-1	-1	39	-1	-1	-1	17	-1	32	4	-1	-1	-1	-1	48	34	-1	-1
7	-1	36	-1	-1	-1	-1	35	5	-1	-1	-1	61	2	22	-1	-1	54	-1	-1	23	-1	-1	-1	28	19	-1	-1	-1	-1	-1	-1	-1	-1	-1	-1	59	-1	49	-1	-1	38	-1	-1	-1	-1	-1	34	51	12	-1	-1	27	8	-1	58	29	-1	-1	30	53	-1	-1	-1
23	46	-1	-1	-1	-1	-1	-1	36	-1	-1	32	29	51	-1	-1	10	19	18	-1	-1	-1	30	52	-1	44	12	-1	4	31	48	61	17	-1	-1	3	-1	27	38	8	63	14	-1	57	-1	41	-1	-1	7	-1	28	53	-1	34	33	-1	-1	2	47	42	58	20	45	9
-1	39	-1	-1	-1	-1	-1	-1	-1	-1	-1	-1	-1	-1	19	42	-1	-1	-1	7	-1	33	-1	-1	46	-1	-1	-1	18	-1	38	-1	-1	34	-1	60	57	-1	-1	30	53	-1	4	-1	9	27	-1	-1	-1	43	-1	2	-1	-1	-1	23	63	-1	-1	8	59	56	40	26
62	-1	-1	26	19	-1	23	-1	50	-1	-1	-1	-1	-1	45	41	42	-1	3	56	-1	-1	13	-1	-1	-1	-1	-1	-1	-1	32	-1	51	40	29	-1	24	-1	9	18	14	44	-1	-1	-1	-1	4	-1	-1	2	-1	-1	-1	-1	-1	-1	-1	-1	-1	-1	-1	-1	64	-1
-1	-1	60	-1	43	-1	-1	12	-1	30	-1	13	58	29	59	7	-1	-1	-1	26	61	-1	-1	-1	27	-1	-1	18	20	-1	-1	37	41	-1	-1	50	-1	57	-1	21	5	-1	-1	-1	-1	55	-1	-1	-1	-1	-1	-1	-1	-1	-1	46	24	-1	-1	48	38	31	4	39
10	-1	-1	-1	-1	59	-1	-1	-1	-1	51	60	-1	-1	-1	17	-1	-1	-1	32	-1	-1	-1	64	-1	-1	25	-1	13	12	36	16	-1	-1	-1	-1	22	-1	-1	-1	-1	43	-1	63	54	-1	-1	-1	48	-1	-1	49	-1	-1	-1	-1	61	-1	14	-1	-1	9	44	45
1	-1	-1	-1	-1	-1	-1	-1	-1	-1	-1	-1	-1	-1	-1	-1	-1	-1	-1	-1	-1	4	-1	31	-1	-1	3	-1	-1	-1	-1	2	-1	-1	13	-1	28	48	-1	-1	62	-1	-1	36	-1	20	-1	-1	-1	34	58	-1	-1	-1	-1	-1	-1	43	-1	-1	-1	-1	53	-1
-1	32	-1	36	-1	-1	7	-1	42	37	23	38	-1	-1	-1	46	5	-1	-1	35	-1	-1	-1	24	31	45	-1	-1	51	14	-1	-1	54	20	-1	-1	-1	61	-1	-1	-1	39	-1	-1	-1	-1	-1	-1	-1	53	-1	-1	-1	-1	-1	59	10	15	-1	41	25	-1	-1	-1
-1	-1	58	-1	54	-1	34	-1	-1	62	-1	24	-1	-1	-1	-1	-1	-1	-1	44	-1	-1	-1	40	-1	-1	9	15	41	-1	-1	-1	6	-1	-1	8	10	43	16	-1	-1	-1	-1	11	35	49	-1	30	18	-1	-1	37	52	63	3	26	32	-1	-1	47	-1	50	-1	2
-1	-1	-1	45	27	-1	21	-1	-1	-1	-1	-1	-1	34	-1	2	-1	55	63	47	9	-1	-1	39	-1	56	-1	-1	-1	-1	7	42	14	44	60	-1	-1	15	37	-1	31	-1	-1	26	16	-1	32	-1	12	-1	-1	-1	-1	64	-1	33	-1	58	-1	35	-1	-1	13	-1
22	63	4	-1	-1	-1	48	-1	52	-1	-1	-1	-1	-1	8	-1	-1	29	-1	15	-1	-1	-1	-1	-1	-1	-1	43	-1	30	-1	33	53	-1	-1	-1	-1	-1	39	1	-1	-1	-1	-1	12	10	13	27	20	61	-1	-1	-1	7	31	-1	-1	37	19	-1	-1	49	60	11
-1	-1	63	22	42	-1	-1	-1	-1	41	26	-1	64	43	-1	34	-1	-1	52	-1	-1	-1	-1	-1	4	-1	55	-1	5	-1	56	-1	-1	-1	-1	-1	-1	-1	-1	17	-1	-1	12	-1	-1	39	36	59	24	-1	8	44	-1	-1	-1	-1	-1	-1	-1	37	14	-1	32	-1
-1	-1	-1	51	-1	57	11	-1	31	-1	-1	50	47	54	-1	23	-1	-1	10	-1	26	-1	-1	-1	-1	58	22	-1	-1	27	61	-1	18	-1	-1	29	-1	8	43	-1	38	7	-1	34	24	-1	-1	28	32	-1	46	-1	-1	-1	-1	-1	-1	-1	33	-1	-1	-1	-1	-1
-1	14	-1	-1	-1	-1	27	-1	-1	-1	8	-1	-1	-1	-1	-1	33	-1	-1	21	-1	-1	62	28	-1	46	-1	-1	-1	50	25	34	12	52	9	44	32	63	-1	-1	-1	41	-1	54	55	26	-1	1	-1	-1	11	5	53	57	-1	48	-1	-1	-1	58	-1	29	-1	40
-1	45	-1	10	44	62	28	-1	24	17	-1	58	-1	-1	-1	3	48	39	-1	-1	-1	-1	-1	-1	-1	-1	-1	37	-1	-1	26	-1	-1	-1	14	-1	-1	59	-1	-1	-1	16	-1	-1	-1	-1	-1	-1	-1	63	34	-1	43	-1	-1	-1	-1	56	-1	25	20	15	-1	-1
-1	23	34	-1	-1	-1	-1	-1	29	28	20	5	33	-1	-1	-1	19	3	-1	11	55	-1	-1	-1	-1	-1	-1	-1	-1	-1	-1	7	-1	-1	30	47	-1	39	2	-1	52	-1	-1	53	-1	22	-1	-1	-1	-1	-1	59	-1	56	10	-1	-1	-1	-1	9	-1	-1	1	16
-1	-1	-1	-1	-1	-1	33	19	21	-1	-1	12	-1	10	-1	-1	-1	-1	-1	-1	60	53	59	-1	-1	-1	20	-1	62	-1	-1	-1	-1	28	-1	-1	-1	-1	-1	-1	27	6	-1	-1	-1	32	-1	35	52	-1	-1	-1	-1	26	7	-1	3	50	-1	64	-1	-1	2	57
-1	-1	-1	39	-1	18	15	-1	-1	-1	-1	-1	-1	-1	7	-1	-1	-1	-1	-1	-1	34	-1	-1	44	-1	35	36	-1	-1	1	49	-1	42	26	-1	-1	-1	-1	-1	17	-1	62	-1	-1	5	10	-1	-1	-1	33	-1	-1	58	20	21	-1	-1	-1	53	-1	-1	-1	55
-1	-1	59	-1	1	17	37	36	-1	-1	52	-1	14	-1	-1	32	-1	-1	-1	-1	-1	-1	-1	4	-1	2	28	31	-1	45	-1	10	-1	-1	-1	-1	-1	-1	-1	-1	58	40	-1	43	48	23	-1	63	-1	-1	-1	9	-1	-1	51	-1	-1	12	-1	-1	-1	26	-1	-1
24	22	-1	-1	-1	-1	-1	-1	-1	-1	37	-1	41	-1	55	-1	15	14	-1	-1	-1	1	-1	18	-1	10	46	60	-1	-1	27	3	-1	6	47	64	-1	-1	-1	16	-1	-1	-1	-1	-1	-1	-1	56	-1	-1	43	-1	-1	-1	54	53	13	-1	32	-1	-1	-1	-1	-1
-1	13	-1	43	10	-1	-1	34	4	44	-1	-1	-1	-1	-1	-1	52	57	-1	-1	-1	-1	-1	-1	61	21	63	-1	33	-1	-1	-1	-1	37	20	59	26	19	42	-1	-1	35	31	-1	60	-1	47	-1	2	58	40	51	12	-1	-1	50	9	46	-1	49	-1	25	-1	7
-1	-1	-1	-1	-1	31	-1	-1	-1	-1	18	-1	24	35	25	-1	21	-1	-1	41	-1	30	58	-1	-1	-1	-1	-1	-1	-1	-1	55	-1	11	-1	-1	-1	1	-1	-1	-1	-1	-1	-1	45	-1	46	16	-1	-1	4	-1	36	-1	60	15	-1	-1	38	-1	-1	-1	-1	-1
46	26	7	-1	-1	-1	64	-1	-1	-1	16	-1	-1	-1	-1	-1	38	-1	34	-1	-1	-1	40	61	62	-1	52	-1	30	-1	-1	-1	-1	-1	-1	54	48	-1	-1	-1	-1	-1	13	-1	11	59	14	17	22	-1	45	18	63	-1	-1	44	12	-1	-1	-1	-1	47	-1	35
-1	-1	-1	16	58	-1	-1	56	3	-1	12	22	-1	-1	17	29	-1	46	23	51	-1	-1	-1	-1	-1	1	50	14	-1	2	-1	36	-1	-1	57	-1	-1	34	-1	55	8	52	-1	20	-1	-1	61	-1	-1	-1	-1	-1	-1	-1	-1	25	4	-1	-1	39	-1	-1	-1	-1
-1	-1	-1	-1	-1	-1	-1	-1	10	-1	-1	36	-1	42	46	-1	31	33	-1	64	-1	11	-1	32	12	-1	-1	8	-1	25	-1	18	44	-1	-1	-1	-1	35	-1	41	26	-1	-1	-1	-1	-1	-1	-1	14	20	61	-1	47	52	-1	39	-1	-1	55	22	1	-1	-1	60
-1	-1	-1	32	-1	20	-1	9	23	13	-1	45	5	-1	34	56	2	-1	-1	-1	39	42	-1	-1	-1	40	-1	-1	-1	11	44	15	-1	-1	-1	-1	-1	18	63	-1	-1	4	-1	-1	-1	-1	3	64	55	46	27	-1	-1	-1	-1	57	-1	14	-1	-1	50	58	24	-1
-1	-1	-1	4	-1	50	55	18	58	14	-1	-1	32	-1	-1	52	25	-1	29	-1	44	-1	-1	43	51	-1	-1	-1	17	22	-1	20	33	-1	-1	-1	46	60	-1	-1	-1	-1	15	40	-1	1	-1	23	41	-1	-1	-1	-1	24	37	7	5	53	-1	-1	62	16	-1	61
8	-1	42	27	-1	-1	-1	33	-1	24	-1	7	28	16	-1	37	57	-1	-1	-1	3	49	18	-1	-1	50	34	23	-1	61	-1	-1	-1	60	-1	48	11	44	-1	-1	-1	-1	-1	-1	-1	63	39	5	-1	-1	-1	-1	-1	-1	2	-1	-1	-1	-1	-1	-1	-1	-1	-1
-1	53	32	-1	18	-1	25	20	-1	22	13	39	-1	52	-1	-1	8	-1	-1	-1	-1	-1	-1	16	-1	-1	-1	11	42	-1	31	27	40	-1	-1	-1	36	-1	61	-1	15	-1	-1	50	6	12	-1	-1	-1	55	-1	56	-1	54	-1	34	-1	-1	35	24	2	64	21	-1
50	-1	54	-1	40	46	-1	29	-1	-1	-1	-1	21	-1	-1	-1	-1	43	-1	62	24	-1	-1	-1	-1	25	-1	41	58	-1	-1	59	57	-1	-1	-1	-1	49	-1	32	-1	8	9	-1	-1	-1	-1	55	-1	45	12	-1	-1	-1	48	-1	11	-1	-1	-1	22	-1	-1	-1
11	57	-1	-1	-1	-1	45	6	-1	31	-1	41	-1	-1	-1	38	-1	-1	-1	-1	36	55	-1	-1	49	-1	1	-1	-1	44	-1	-1	62	18	-1	-1	-1	-1	34	5	-1	-1	-1	-1	25	51	-1	-1	-1	22	-1	8	-1	-1	9	-1	7	-1	-1	-1	-1	-1	-1	-1
58	15	3	-1	34	-1	-1	-1	-1	64	17	18	25	-1	29	61	-1	-1	13	50	32	-1	-1	19	55	7	-1	-1	-1	-1	-1	-1	9	51	-1	1	6	-1	-1	12	-1	27	16	-1	-1	-1	-1	-1	49	-1	23	31	-1	-1	-1	-1	-1	26	42	-1	-1	41	-1	-1
64	-1	-1	1	14	-1	-1	49	27	-1	36	46	-1	-1	5	-1	-1	-1	7	-1	21	6	51	-1	-1	-1	-1	12	-1	-1	-1	47	-1	-1	33	31	-1	13	-1	35	24	-1	54	-1	23	-1	-1	-1	-1	-1	-1	-1	28	-1	-1	42	-1	52	-1	-1	-1	32	38	43
-1	31	-1	-1	24	-1	17	60	-1	-1	-1	-1	23	33	-1	-1	45	26	61	-1	11	37	-1	-1	56	-1	15	57	46	35	10	-1	-1	-1	-1	-1	-1	-1	29	28	-1	48	-1	-1	-1	-1	-1	-1	53	38	30	-1	44	-1	25	-1	-1	34	9	-1	-1	54	8	63
43	-1	-1	-1	56	-1	-1	-1	-1	45	-1	42	-1	14	-1	8	40	-1	-1	-1	-1	-1	-1	63	-1	26	-1	-1	-1	32	28	21	-1	-1	50	-1	-1	-1	-1	-1	35	49	-1	-1	46	-1	-1	-1	-1	-1	-1	-1	29	-1	-1	20	-1	36	-1	-1	-1	12	61	33
64 
28 57 38 15
35 40 42 46
1 25 21 54
49 20 64 54
29 60 42 34
37 41 14 23
2 9 27 61
36 64 39 30
1 26 46 2
19 2 43 58
48 63 49 58
37 14 5 4
43 6 41 53
10 22 23 62
62 49 43 10
4 12 19 30
28 21 36 23
50 46 27 35
42 50 64 33
13 47 59 22
3 29 41 41
11 39 50 24
52 35 40 25
46 19 16 32
48 53 7 11
4 19 12 59
13 2 5 60
22 32 34 44
36 45 54 58
49 64 26 1
12 18 56 60
9 58 47 8
34 19 49 10
54 47 15 6
34 31 27 21
43 39 55 1
54 42 22 29
21 38 57 25
63 34 3 35
14 32 42 20
55 25 45 5
36 4 19 35
11 62 51 26
30 23 53 3
53 25 4 6
9 11 30 64
36 28 37 15
62 29 60 4
56 34 46 5
16 14 63 16
17 54 21 45
15 55 61 56
62 34 50 31
28 56 40 21
16 55 7 9
1 29 47 38
58 53 47 29
40 34 22 4
24 62 39 64
53 17 60 54
32 6 24 54
7 5 39 22
42 10 27 18
44 34 40 27
